\ LP format - for model browsing. Use MPS format to capture full model detail.
Maximize
  x0,1_4 + x0,1_12 + x0,1_44 + x0,1_50 + x0,1_55 + x0,1_57 + x0,1_70
   + x0,2_4 + x0,2_12 + x0,2_44 + x0,2_50 + x0,2_55 + x0,2_57 + x0,2_70
   + x0,3_4 + x0,3_12 + x0,3_44 + x0,3_50 + x0,3_55 + x0,3_57 + x0,3_70
   + x0,4_4 + x0,4_12 + x0,4_44 + x0,4_50 + x0,4_55 + x0,4_57 + x0,4_70
   + x0,5_4 + x0,5_12 + x0,5_44 + x0,5_50 + x0,5_55 + x0,5_57 + x0,5_70
   + x0,6_4 + x0,6_12 + x0,6_44 + x0,6_50 + x0,6_55 + x0,6_57 + x0,6_70
   + x1,2_4 + x1,2_12 + x1,2_44 + x1,2_50 + x1,2_55 + x1,2_57 + x1,2_70
   + x1,3_4 + x1,3_12 + x1,3_44 + x1,3_50 + x1,3_55 + x1,3_57 + x1,3_70
   + x1,4_4 + x1,4_12 + x1,4_44 + x1,4_50 + x1,4_55 + x1,4_57 + x1,4_70
   + x1,5_4 + x1,5_12 + x1,5_44 + x1,5_50 + x1,5_55 + x1,5_57 + x1,5_70
   + x1,6_4 + x1,6_12 + x1,6_44 + x1,6_50 + x1,6_55 + x1,6_57 + x1,6_70
   + x2,3_4 + x2,3_12 + x2,3_44 + x2,3_50 + x2,3_55 + x2,3_57 + x2,3_70
   + x2,4_4 + x2,4_12 + x2,4_44 + x2,4_50 + x2,4_55 + x2,4_57 + x2,4_70
   + x2,5_4 + x2,5_12 + x2,5_44 + x2,5_50 + x2,5_55 + x2,5_57 + x2,5_70
   + x2,6_4 + x2,6_12 + x2,6_44 + x2,6_50 + x2,6_55 + x2,6_57 + x2,6_70
   + x3,4_4 + x3,4_12 + x3,4_44 + x3,4_50 + x3,4_55 + x3,4_57 + x3,4_70
   + x3,5_4 + x3,5_12 + x3,5_44 + x3,5_50 + x3,5_55 + x3,5_57 + x3,5_70
   + x3,6_4 + x3,6_12 + x3,6_44 + x3,6_50 + x3,6_55 + x3,6_57 + x3,6_70
   + x4,5_4 + x4,5_12 + x4,5_44 + x4,5_50 + x4,5_55 + x4,5_57 + x4,5_70
   + x4,6_4 + x4,6_12 + x4,6_44 + x4,6_50 + x4,6_55 + x4,6_57 + x4,6_70
   + x5,6_4 + x5,6_12 + x5,6_44 + x5,6_50 + x5,6_55 + x5,6_57 + x5,6_70
Subject To
 R0: x0,1_4 + x0,2_4 + x0,3_4 + x0,4_4 + x0,5_4 + x0,6_4 + x1,2_4 + x1,3_4
   + x1,4_4 + x1,5_4 + x1,6_4 + x2,3_4 + x2,4_4 + x2,5_4 + x2,6_4 + x3,4_4
   + x3,5_4 + x3,6_4 + x4,5_4 + x4,6_4 + x5,6_4 <= 1
 R1: x0,1_12 + x0,2_12 + x0,3_12 + x0,4_12 + x0,5_12 + x0,6_12 + x1,2_12
   + x1,3_12 + x1,4_12 + x1,5_12 + x1,6_12 + x2,3_12 + x2,4_12 + x2,5_12
   + x2,6_12 + x3,4_12 + x3,5_12 + x3,6_12 + x4,5_12 + x4,6_12 + x5,6_12
   <= 1
 R2: x0,1_44 + x0,2_44 + x0,3_44 + x0,4_44 + x0,5_44 + x0,6_44 + x1,2_44
   + x1,3_44 + x1,4_44 + x1,5_44 + x1,6_44 + x2,3_44 + x2,4_44 + x2,5_44
   + x2,6_44 + x3,4_44 + x3,5_44 + x3,6_44 + x4,5_44 + x4,6_44 + x5,6_44
   <= 1
 R3: x0,1_50 + x0,2_50 + x0,3_50 + x0,4_50 + x0,5_50 + x0,6_50 + x1,2_50
   + x1,3_50 + x1,4_50 + x1,5_50 + x1,6_50 + x2,3_50 + x2,4_50 + x2,5_50
   + x2,6_50 + x3,4_50 + x3,5_50 + x3,6_50 + x4,5_50 + x4,6_50 + x5,6_50
   <= 1
 R4: x0,1_55 + x0,2_55 + x0,3_55 + x0,4_55 + x0,5_55 + x0,6_55 + x1,2_55
   + x1,3_55 + x1,4_55 + x1,5_55 + x1,6_55 + x2,3_55 + x2,4_55 + x2,5_55
   + x2,6_55 + x3,4_55 + x3,5_55 + x3,6_55 + x4,5_55 + x4,6_55 + x5,6_55
   <= 1
 R5: x0,1_57 + x0,2_57 + x0,3_57 + x0,4_57 + x0,5_57 + x0,6_57 + x1,2_57
   + x1,3_57 + x1,4_57 + x1,5_57 + x1,6_57 + x2,3_57 + x2,4_57 + x2,5_57
   + x2,6_57 + x3,4_57 + x3,5_57 + x3,6_57 + x4,5_57 + x4,6_57 + x5,6_57
   <= 1
 R6: x0,1_70 + x0,2_70 + x0,3_70 + x0,4_70 + x0,5_70 + x0,6_70 + x1,2_70
   + x1,3_70 + x1,4_70 + x1,5_70 + x1,6_70 + x2,3_70 + x2,4_70 + x2,5_70
   + x2,6_70 + x3,4_70 + x3,5_70 + x3,6_70 + x4,5_70 + x4,6_70 + x5,6_70
   <= 1
 R7: x0,1_4 + x0,1_12 + x0,1_44 + x0,1_50 + x0,1_55 + x0,1_57 + x0,1_70
   <= 1
 R8: x0,2_4 + x0,2_12 + x0,2_44 + x0,2_50 + x0,2_55 + x0,2_57 + x0,2_70
   <= 1
 R9: x0,3_4 + x0,3_12 + x0,3_44 + x0,3_50 + x0,3_55 + x0,3_57 + x0,3_70
   <= 1
 R10: x0,4_4 + x0,4_12 + x0,4_44 + x0,4_50 + x0,4_55 + x0,4_57 + x0,4_70
   <= 1
 R11: x0,5_4 + x0,5_12 + x0,5_44 + x0,5_50 + x0,5_55 + x0,5_57 + x0,5_70
   <= 1
 R12: x0,6_4 + x0,6_12 + x0,6_44 + x0,6_50 + x0,6_55 + x0,6_57 + x0,6_70
   <= 1
 R13: x1,2_4 + x1,2_12 + x1,2_44 + x1,2_50 + x1,2_55 + x1,2_57 + x1,2_70
   <= 1
 R14: x1,3_4 + x1,3_12 + x1,3_44 + x1,3_50 + x1,3_55 + x1,3_57 + x1,3_70
   <= 1
 R15: x1,4_4 + x1,4_12 + x1,4_44 + x1,4_50 + x1,4_55 + x1,4_57 + x1,4_70
   <= 1
 R16: x1,5_4 + x1,5_12 + x1,5_44 + x1,5_50 + x1,5_55 + x1,5_57 + x1,5_70
   <= 1
 R17: x1,6_4 + x1,6_12 + x1,6_44 + x1,6_50 + x1,6_55 + x1,6_57 + x1,6_70
   <= 1
 R18: x2,3_4 + x2,3_12 + x2,3_44 + x2,3_50 + x2,3_55 + x2,3_57 + x2,3_70
   <= 1
 R19: x2,4_4 + x2,4_12 + x2,4_44 + x2,4_50 + x2,4_55 + x2,4_57 + x2,4_70
   <= 1
 R20: x2,5_4 + x2,5_12 + x2,5_44 + x2,5_50 + x2,5_55 + x2,5_57 + x2,5_70
   <= 1
 R21: x2,6_4 + x2,6_12 + x2,6_44 + x2,6_50 + x2,6_55 + x2,6_57 + x2,6_70
   <= 1
 R22: x3,4_4 + x3,4_12 + x3,4_44 + x3,4_50 + x3,4_55 + x3,4_57 + x3,4_70
   <= 1
 R23: x3,5_4 + x3,5_12 + x3,5_44 + x3,5_50 + x3,5_55 + x3,5_57 + x3,5_70
   <= 1
 R24: x3,6_4 + x3,6_12 + x3,6_44 + x3,6_50 + x3,6_55 + x3,6_57 + x3,6_70
   <= 1
 R25: x4,5_4 + x4,5_12 + x4,5_44 + x4,5_50 + x4,5_55 + x4,5_57 + x4,5_70
   <= 1
 R26: x4,6_4 + x4,6_12 + x4,6_44 + x4,6_50 + x4,6_55 + x4,6_57 + x4,6_70
   <= 1
 R27: x5,6_4 + x5,6_12 + x5,6_44 + x5,6_50 + x5,6_55 + x5,6_57 + x5,6_70
   <= 1
 R28: p0 - p1 <= -1
 R29: - 4 x0,1_4 - p0 + p1 >= 0
 R30: 292 x0,1_4 - p0 + p1 <= 296
 R31: - 12 x0,1_12 - p0 + p1 >= 0
 R32: 292 x0,1_12 - p0 + p1 <= 304
 R33: - 44 x0,1_44 - p0 + p1 >= 0
 R34: 292 x0,1_44 - p0 + p1 <= 336
 R35: - 50 x0,1_50 - p0 + p1 >= 0
 R36: 292 x0,1_50 - p0 + p1 <= 342
 R37: - 55 x0,1_55 - p0 + p1 >= 0
 R38: 292 x0,1_55 - p0 + p1 <= 347
 R39: - 57 x0,1_57 - p0 + p1 >= 0
 R40: 292 x0,1_57 - p0 + p1 <= 349
 R41: - 70 x0,1_70 - p0 + p1 >= 0
 R42: 292 x0,1_70 - p0 + p1 <= 362
 R43: p0 - p2 <= -1
 R44: - 4 x0,2_4 - p0 + p2 >= 0
 R45: 292 x0,2_4 - p0 + p2 <= 296
 R46: - 12 x0,2_12 - p0 + p2 >= 0
 R47: 292 x0,2_12 - p0 + p2 <= 304
 R48: - 44 x0,2_44 - p0 + p2 >= 0
 R49: 292 x0,2_44 - p0 + p2 <= 336
 R50: - 50 x0,2_50 - p0 + p2 >= 0
 R51: 292 x0,2_50 - p0 + p2 <= 342
 R52: - 55 x0,2_55 - p0 + p2 >= 0
 R53: 292 x0,2_55 - p0 + p2 <= 347
 R54: - 57 x0,2_57 - p0 + p2 >= 0
 R55: 292 x0,2_57 - p0 + p2 <= 349
 R56: - 70 x0,2_70 - p0 + p2 >= 0
 R57: 292 x0,2_70 - p0 + p2 <= 362
 R58: p0 - p3 <= -1
 R59: - 4 x0,3_4 - p0 + p3 >= 0
 R60: 292 x0,3_4 - p0 + p3 <= 296
 R61: - 12 x0,3_12 - p0 + p3 >= 0
 R62: 292 x0,3_12 - p0 + p3 <= 304
 R63: - 44 x0,3_44 - p0 + p3 >= 0
 R64: 292 x0,3_44 - p0 + p3 <= 336
 R65: - 50 x0,3_50 - p0 + p3 >= 0
 R66: 292 x0,3_50 - p0 + p3 <= 342
 R67: - 55 x0,3_55 - p0 + p3 >= 0
 R68: 292 x0,3_55 - p0 + p3 <= 347
 R69: - 57 x0,3_57 - p0 + p3 >= 0
 R70: 292 x0,3_57 - p0 + p3 <= 349
 R71: - 70 x0,3_70 - p0 + p3 >= 0
 R72: 292 x0,3_70 - p0 + p3 <= 362
 R73: p0 - p4 <= -1
 R74: - 4 x0,4_4 - p0 + p4 >= 0
 R75: 292 x0,4_4 - p0 + p4 <= 296
 R76: - 12 x0,4_12 - p0 + p4 >= 0
 R77: 292 x0,4_12 - p0 + p4 <= 304
 R78: - 44 x0,4_44 - p0 + p4 >= 0
 R79: 292 x0,4_44 - p0 + p4 <= 336
 R80: - 50 x0,4_50 - p0 + p4 >= 0
 R81: 292 x0,4_50 - p0 + p4 <= 342
 R82: - 55 x0,4_55 - p0 + p4 >= 0
 R83: 292 x0,4_55 - p0 + p4 <= 347
 R84: - 57 x0,4_57 - p0 + p4 >= 0
 R85: 292 x0,4_57 - p0 + p4 <= 349
 R86: - 70 x0,4_70 - p0 + p4 >= 0
 R87: 292 x0,4_70 - p0 + p4 <= 362
 R88: p0 - p5 <= -1
 R89: - 4 x0,5_4 - p0 + p5 >= 0
 R90: 292 x0,5_4 - p0 + p5 <= 296
 R91: - 12 x0,5_12 - p0 + p5 >= 0
 R92: 292 x0,5_12 - p0 + p5 <= 304
 R93: - 44 x0,5_44 - p0 + p5 >= 0
 R94: 292 x0,5_44 - p0 + p5 <= 336
 R95: - 50 x0,5_50 - p0 + p5 >= 0
 R96: 292 x0,5_50 - p0 + p5 <= 342
 R97: - 55 x0,5_55 - p0 + p5 >= 0
 R98: 292 x0,5_55 - p0 + p5 <= 347
 R99: - 57 x0,5_57 - p0 + p5 >= 0
 R100: 292 x0,5_57 - p0 + p5 <= 349
 R101: - 70 x0,5_70 - p0 + p5 >= 0
 R102: 292 x0,5_70 - p0 + p5 <= 362
 R103: p0 - p6 <= -1
 R104: - 4 x0,6_4 - p0 + p6 >= 0
 R105: 292 x0,6_4 - p0 + p6 <= 296
 R106: - 12 x0,6_12 - p0 + p6 >= 0
 R107: 292 x0,6_12 - p0 + p6 <= 304
 R108: - 44 x0,6_44 - p0 + p6 >= 0
 R109: 292 x0,6_44 - p0 + p6 <= 336
 R110: - 50 x0,6_50 - p0 + p6 >= 0
 R111: 292 x0,6_50 - p0 + p6 <= 342
 R112: - 55 x0,6_55 - p0 + p6 >= 0
 R113: 292 x0,6_55 - p0 + p6 <= 347
 R114: - 57 x0,6_57 - p0 + p6 >= 0
 R115: 292 x0,6_57 - p0 + p6 <= 349
 R116: - 70 x0,6_70 - p0 + p6 >= 0
 R117: 292 x0,6_70 - p0 + p6 <= 362
 R118: p1 - p2 <= -1
 R119: - 4 x1,2_4 - p1 + p2 >= 0
 R120: 292 x1,2_4 - p1 + p2 <= 296
 R121: - 12 x1,2_12 - p1 + p2 >= 0
 R122: 292 x1,2_12 - p1 + p2 <= 304
 R123: - 44 x1,2_44 - p1 + p2 >= 0
 R124: 292 x1,2_44 - p1 + p2 <= 336
 R125: - 50 x1,2_50 - p1 + p2 >= 0
 R126: 292 x1,2_50 - p1 + p2 <= 342
 R127: - 55 x1,2_55 - p1 + p2 >= 0
 R128: 292 x1,2_55 - p1 + p2 <= 347
 R129: - 57 x1,2_57 - p1 + p2 >= 0
 R130: 292 x1,2_57 - p1 + p2 <= 349
 R131: - 70 x1,2_70 - p1 + p2 >= 0
 R132: 292 x1,2_70 - p1 + p2 <= 362
 R133: p1 - p3 <= -1
 R134: - 4 x1,3_4 - p1 + p3 >= 0
 R135: 292 x1,3_4 - p1 + p3 <= 296
 R136: - 12 x1,3_12 - p1 + p3 >= 0
 R137: 292 x1,3_12 - p1 + p3 <= 304
 R138: - 44 x1,3_44 - p1 + p3 >= 0
 R139: 292 x1,3_44 - p1 + p3 <= 336
 R140: - 50 x1,3_50 - p1 + p3 >= 0
 R141: 292 x1,3_50 - p1 + p3 <= 342
 R142: - 55 x1,3_55 - p1 + p3 >= 0
 R143: 292 x1,3_55 - p1 + p3 <= 347
 R144: - 57 x1,3_57 - p1 + p3 >= 0
 R145: 292 x1,3_57 - p1 + p3 <= 349
 R146: - 70 x1,3_70 - p1 + p3 >= 0
 R147: 292 x1,3_70 - p1 + p3 <= 362
 R148: p1 - p4 <= -1
 R149: - 4 x1,4_4 - p1 + p4 >= 0
 R150: 292 x1,4_4 - p1 + p4 <= 296
 R151: - 12 x1,4_12 - p1 + p4 >= 0
 R152: 292 x1,4_12 - p1 + p4 <= 304
 R153: - 44 x1,4_44 - p1 + p4 >= 0
 R154: 292 x1,4_44 - p1 + p4 <= 336
 R155: - 50 x1,4_50 - p1 + p4 >= 0
 R156: 292 x1,4_50 - p1 + p4 <= 342
 R157: - 55 x1,4_55 - p1 + p4 >= 0
 R158: 292 x1,4_55 - p1 + p4 <= 347
 R159: - 57 x1,4_57 - p1 + p4 >= 0
 R160: 292 x1,4_57 - p1 + p4 <= 349
 R161: - 70 x1,4_70 - p1 + p4 >= 0
 R162: 292 x1,4_70 - p1 + p4 <= 362
 R163: p1 - p5 <= -1
 R164: - 4 x1,5_4 - p1 + p5 >= 0
 R165: 292 x1,5_4 - p1 + p5 <= 296
 R166: - 12 x1,5_12 - p1 + p5 >= 0
 R167: 292 x1,5_12 - p1 + p5 <= 304
 R168: - 44 x1,5_44 - p1 + p5 >= 0
 R169: 292 x1,5_44 - p1 + p5 <= 336
 R170: - 50 x1,5_50 - p1 + p5 >= 0
 R171: 292 x1,5_50 - p1 + p5 <= 342
 R172: - 55 x1,5_55 - p1 + p5 >= 0
 R173: 292 x1,5_55 - p1 + p5 <= 347
 R174: - 57 x1,5_57 - p1 + p5 >= 0
 R175: 292 x1,5_57 - p1 + p5 <= 349
 R176: - 70 x1,5_70 - p1 + p5 >= 0
 R177: 292 x1,5_70 - p1 + p5 <= 362
 R178: p1 - p6 <= -1
 R179: - 4 x1,6_4 - p1 + p6 >= 0
 R180: 292 x1,6_4 - p1 + p6 <= 296
 R181: - 12 x1,6_12 - p1 + p6 >= 0
 R182: 292 x1,6_12 - p1 + p6 <= 304
 R183: - 44 x1,6_44 - p1 + p6 >= 0
 R184: 292 x1,6_44 - p1 + p6 <= 336
 R185: - 50 x1,6_50 - p1 + p6 >= 0
 R186: 292 x1,6_50 - p1 + p6 <= 342
 R187: - 55 x1,6_55 - p1 + p6 >= 0
 R188: 292 x1,6_55 - p1 + p6 <= 347
 R189: - 57 x1,6_57 - p1 + p6 >= 0
 R190: 292 x1,6_57 - p1 + p6 <= 349
 R191: - 70 x1,6_70 - p1 + p6 >= 0
 R192: 292 x1,6_70 - p1 + p6 <= 362
 R193: p2 - p3 <= -1
 R194: - 4 x2,3_4 - p2 + p3 >= 0
 R195: 292 x2,3_4 - p2 + p3 <= 296
 R196: - 12 x2,3_12 - p2 + p3 >= 0
 R197: 292 x2,3_12 - p2 + p3 <= 304
 R198: - 44 x2,3_44 - p2 + p3 >= 0
 R199: 292 x2,3_44 - p2 + p3 <= 336
 R200: - 50 x2,3_50 - p2 + p3 >= 0
 R201: 292 x2,3_50 - p2 + p3 <= 342
 R202: - 55 x2,3_55 - p2 + p3 >= 0
 R203: 292 x2,3_55 - p2 + p3 <= 347
 R204: - 57 x2,3_57 - p2 + p3 >= 0
 R205: 292 x2,3_57 - p2 + p3 <= 349
 R206: - 70 x2,3_70 - p2 + p3 >= 0
 R207: 292 x2,3_70 - p2 + p3 <= 362
 R208: p2 - p4 <= -1
 R209: - 4 x2,4_4 - p2 + p4 >= 0
 R210: 292 x2,4_4 - p2 + p4 <= 296
 R211: - 12 x2,4_12 - p2 + p4 >= 0
 R212: 292 x2,4_12 - p2 + p4 <= 304
 R213: - 44 x2,4_44 - p2 + p4 >= 0
 R214: 292 x2,4_44 - p2 + p4 <= 336
 R215: - 50 x2,4_50 - p2 + p4 >= 0
 R216: 292 x2,4_50 - p2 + p4 <= 342
 R217: - 55 x2,4_55 - p2 + p4 >= 0
 R218: 292 x2,4_55 - p2 + p4 <= 347
 R219: - 57 x2,4_57 - p2 + p4 >= 0
 R220: 292 x2,4_57 - p2 + p4 <= 349
 R221: - 70 x2,4_70 - p2 + p4 >= 0
 R222: 292 x2,4_70 - p2 + p4 <= 362
 R223: p2 - p5 <= -1
 R224: - 4 x2,5_4 - p2 + p5 >= 0
 R225: 292 x2,5_4 - p2 + p5 <= 296
 R226: - 12 x2,5_12 - p2 + p5 >= 0
 R227: 292 x2,5_12 - p2 + p5 <= 304
 R228: - 44 x2,5_44 - p2 + p5 >= 0
 R229: 292 x2,5_44 - p2 + p5 <= 336
 R230: - 50 x2,5_50 - p2 + p5 >= 0
 R231: 292 x2,5_50 - p2 + p5 <= 342
 R232: - 55 x2,5_55 - p2 + p5 >= 0
 R233: 292 x2,5_55 - p2 + p5 <= 347
 R234: - 57 x2,5_57 - p2 + p5 >= 0
 R235: 292 x2,5_57 - p2 + p5 <= 349
 R236: - 70 x2,5_70 - p2 + p5 >= 0
 R237: 292 x2,5_70 - p2 + p5 <= 362
 R238: p2 - p6 <= -1
 R239: - 4 x2,6_4 - p2 + p6 >= 0
 R240: 292 x2,6_4 - p2 + p6 <= 296
 R241: - 12 x2,6_12 - p2 + p6 >= 0
 R242: 292 x2,6_12 - p2 + p6 <= 304
 R243: - 44 x2,6_44 - p2 + p6 >= 0
 R244: 292 x2,6_44 - p2 + p6 <= 336
 R245: - 50 x2,6_50 - p2 + p6 >= 0
 R246: 292 x2,6_50 - p2 + p6 <= 342
 R247: - 55 x2,6_55 - p2 + p6 >= 0
 R248: 292 x2,6_55 - p2 + p6 <= 347
 R249: - 57 x2,6_57 - p2 + p6 >= 0
 R250: 292 x2,6_57 - p2 + p6 <= 349
 R251: - 70 x2,6_70 - p2 + p6 >= 0
 R252: 292 x2,6_70 - p2 + p6 <= 362
 R253: p3 - p4 <= -1
 R254: - 4 x3,4_4 - p3 + p4 >= 0
 R255: 292 x3,4_4 - p3 + p4 <= 296
 R256: - 12 x3,4_12 - p3 + p4 >= 0
 R257: 292 x3,4_12 - p3 + p4 <= 304
 R258: - 44 x3,4_44 - p3 + p4 >= 0
 R259: 292 x3,4_44 - p3 + p4 <= 336
 R260: - 50 x3,4_50 - p3 + p4 >= 0
 R261: 292 x3,4_50 - p3 + p4 <= 342
 R262: - 55 x3,4_55 - p3 + p4 >= 0
 R263: 292 x3,4_55 - p3 + p4 <= 347
 R264: - 57 x3,4_57 - p3 + p4 >= 0
 R265: 292 x3,4_57 - p3 + p4 <= 349
 R266: - 70 x3,4_70 - p3 + p4 >= 0
 R267: 292 x3,4_70 - p3 + p4 <= 362
 R268: p3 - p5 <= -1
 R269: - 4 x3,5_4 - p3 + p5 >= 0
 R270: 292 x3,5_4 - p3 + p5 <= 296
 R271: - 12 x3,5_12 - p3 + p5 >= 0
 R272: 292 x3,5_12 - p3 + p5 <= 304
 R273: - 44 x3,5_44 - p3 + p5 >= 0
 R274: 292 x3,5_44 - p3 + p5 <= 336
 R275: - 50 x3,5_50 - p3 + p5 >= 0
 R276: 292 x3,5_50 - p3 + p5 <= 342
 R277: - 55 x3,5_55 - p3 + p5 >= 0
 R278: 292 x3,5_55 - p3 + p5 <= 347
 R279: - 57 x3,5_57 - p3 + p5 >= 0
 R280: 292 x3,5_57 - p3 + p5 <= 349
 R281: - 70 x3,5_70 - p3 + p5 >= 0
 R282: 292 x3,5_70 - p3 + p5 <= 362
 R283: p3 - p6 <= -1
 R284: - 4 x3,6_4 - p3 + p6 >= 0
 R285: 292 x3,6_4 - p3 + p6 <= 296
 R286: - 12 x3,6_12 - p3 + p6 >= 0
 R287: 292 x3,6_12 - p3 + p6 <= 304
 R288: - 44 x3,6_44 - p3 + p6 >= 0
 R289: 292 x3,6_44 - p3 + p6 <= 336
 R290: - 50 x3,6_50 - p3 + p6 >= 0
 R291: 292 x3,6_50 - p3 + p6 <= 342
 R292: - 55 x3,6_55 - p3 + p6 >= 0
 R293: 292 x3,6_55 - p3 + p6 <= 347
 R294: - 57 x3,6_57 - p3 + p6 >= 0
 R295: 292 x3,6_57 - p3 + p6 <= 349
 R296: - 70 x3,6_70 - p3 + p6 >= 0
 R297: 292 x3,6_70 - p3 + p6 <= 362
 R298: p4 - p5 <= -1
 R299: - 4 x4,5_4 - p4 + p5 >= 0
 R300: 292 x4,5_4 - p4 + p5 <= 296
 R301: - 12 x4,5_12 - p4 + p5 >= 0
 R302: 292 x4,5_12 - p4 + p5 <= 304
 R303: - 44 x4,5_44 - p4 + p5 >= 0
 R304: 292 x4,5_44 - p4 + p5 <= 336
 R305: - 50 x4,5_50 - p4 + p5 >= 0
 R306: 292 x4,5_50 - p4 + p5 <= 342
 R307: - 55 x4,5_55 - p4 + p5 >= 0
 R308: 292 x4,5_55 - p4 + p5 <= 347
 R309: - 57 x4,5_57 - p4 + p5 >= 0
 R310: 292 x4,5_57 - p4 + p5 <= 349
 R311: - 70 x4,5_70 - p4 + p5 >= 0
 R312: 292 x4,5_70 - p4 + p5 <= 362
 R313: p4 - p6 <= -1
 R314: - 4 x4,6_4 - p4 + p6 >= 0
 R315: 292 x4,6_4 - p4 + p6 <= 296
 R316: - 12 x4,6_12 - p4 + p6 >= 0
 R317: 292 x4,6_12 - p4 + p6 <= 304
 R318: - 44 x4,6_44 - p4 + p6 >= 0
 R319: 292 x4,6_44 - p4 + p6 <= 336
 R320: - 50 x4,6_50 - p4 + p6 >= 0
 R321: 292 x4,6_50 - p4 + p6 <= 342
 R322: - 55 x4,6_55 - p4 + p6 >= 0
 R323: 292 x4,6_55 - p4 + p6 <= 347
 R324: - 57 x4,6_57 - p4 + p6 >= 0
 R325: 292 x4,6_57 - p4 + p6 <= 349
 R326: - 70 x4,6_70 - p4 + p6 >= 0
 R327: 292 x4,6_70 - p4 + p6 <= 362
 R328: p5 - p6 <= -1
 R329: - 4 x5,6_4 - p5 + p6 >= 0
 R330: 292 x5,6_4 - p5 + p6 <= 296
 R331: - 12 x5,6_12 - p5 + p6 >= 0
 R332: 292 x5,6_12 - p5 + p6 <= 304
 R333: - 44 x5,6_44 - p5 + p6 >= 0
 R334: 292 x5,6_44 - p5 + p6 <= 336
 R335: - 50 x5,6_50 - p5 + p6 >= 0
 R336: 292 x5,6_50 - p5 + p6 <= 342
 R337: - 55 x5,6_55 - p5 + p6 >= 0
 R338: 292 x5,6_55 - p5 + p6 <= 347
 R339: - 57 x5,6_57 - p5 + p6 >= 0
 R340: 292 x5,6_57 - p5 + p6 <= 349
 R341: - 70 x5,6_70 - p5 + p6 >= 0
 R342: 292 x5,6_70 - p5 + p6 <= 362
Bounds
Binaries
 x0,1_4 x0,1_12 x0,1_44 x0,1_50 x0,1_55 x0,1_57 x0,1_70 x0,2_4 x0,2_12
 x0,2_44 x0,2_50 x0,2_55 x0,2_57 x0,2_70 x0,3_4 x0,3_12 x0,3_44 x0,3_50
 x0,3_55 x0,3_57 x0,3_70 x0,4_4 x0,4_12 x0,4_44 x0,4_50 x0,4_55 x0,4_57
 x0,4_70 x0,5_4 x0,5_12 x0,5_44 x0,5_50 x0,5_55 x0,5_57 x0,5_70 x0,6_4
 x0,6_12 x0,6_44 x0,6_50 x0,6_55 x0,6_57 x0,6_70 x1,2_4 x1,2_12 x1,2_44
 x1,2_50 x1,2_55 x1,2_57 x1,2_70 x1,3_4 x1,3_12 x1,3_44 x1,3_50 x1,3_55
 x1,3_57 x1,3_70 x1,4_4 x1,4_12 x1,4_44 x1,4_50 x1,4_55 x1,4_57 x1,4_70
 x1,5_4 x1,5_12 x1,5_44 x1,5_50 x1,5_55 x1,5_57 x1,5_70 x1,6_4 x1,6_12
 x1,6_44 x1,6_50 x1,6_55 x1,6_57 x1,6_70 x2,3_4 x2,3_12 x2,3_44 x2,3_50
 x2,3_55 x2,3_57 x2,3_70 x2,4_4 x2,4_12 x2,4_44 x2,4_50 x2,4_55 x2,4_57
 x2,4_70 x2,5_4 x2,5_12 x2,5_44 x2,5_50 x2,5_55 x2,5_57 x2,5_70 x2,6_4
 x2,6_12 x2,6_44 x2,6_50 x2,6_55 x2,6_57 x2,6_70 x3,4_4 x3,4_12 x3,4_44
 x3,4_50 x3,4_55 x3,4_57 x3,4_70 x3,5_4 x3,5_12 x3,5_44 x3,5_50 x3,5_55
 x3,5_57 x3,5_70 x3,6_4 x3,6_12 x3,6_44 x3,6_50 x3,6_55 x3,6_57 x3,6_70
 x4,5_4 x4,5_12 x4,5_44 x4,5_50 x4,5_55 x4,5_57 x4,5_70 x4,6_4 x4,6_12
 x4,6_44 x4,6_50 x4,6_55 x4,6_57 x4,6_70 x5,6_4 x5,6_12 x5,6_44 x5,6_50
 x5,6_55 x5,6_57 x5,6_70
Generals
 p0 p1 p2 p3 p4 p5 p6
End
